31 41
2 6
62 86
16 154
6 13
60 11
11 186
14 117
42 43
98 6
38 34
8 46
93 62
18 84
79 18
59 55
100 44
24 176
42 57
11 163
12 173
79 10
1 87
11 45
31 97
47 31
81 19
39 61
13 47
5 157
11 126
17 91
24 56
19 190
36 70
37 32
20 89
8 106
85 29
33 95
92 55
13 57
24 83
23 31
33 119
5 142
23 118
6 100
38 86
45 61
